NAME: circle16
TYPE: TSP
COMMENT: Test dataset with 16 cities (circle pattern)
DIMENSION: 16
EDGE_WEIGHT_TYPE: EUC_2D
NODE_COORD_SECTION
1 96.244102 50.000000
2 107.513177 73.822738
3 84.665470 84.665470
4 72.457179 104.216426
5 50.000000 99.598471
6 32.238338 92.880445
7 16.292158 83.707842
8 8.114486 67.349548
9 1.585098 50.000000
10 3.617438 30.787714
11 16.868271 16.868271
12 31.084206 4.333233
13 50.000000 -1.837727
14 66.214368 10.855052
15 89.245602 10.754398
16 97.723847 30.232135
EOF
